W=8;
H=7;

MAX_TIME=23;
MAX_TRACKS=15;

TARGET=(4,8);

TRAINS=[(3,1,RIGHT),(5,1,RIGHT)];
DECOYS=[];

INIT_POS=[
(2,4,STRAIGHT_TD),
(3,1,STRAIGHT_RL),
(3,4,STRAIGHT_TD),
(3,6,STRAIGHT_TD),
(4,7,STRAIGHT_RL),
(4,8,STRAIGHT_RL),
(5,1,STRAIGHT_RL),
(5,2,STRAIGHT_RL),
(5,5,STRAIGHT_TD),
(6,5,STRAIGHT_TD),
];
TUNNEL_PAIRS=[];

GATES=[
(2,4,3,false),
(4,7,1,false),
(5,2,2,false),
(5,5,1,false),
];
ACTIVATIONS=[
(3,4,2),
(3,6,1),
(6,5,3),
];

DSWITCHES=[];

STATIONS=[];
